6909
42,9,28,6,37,47,110,81,29,2,19,99,114,102,70,108,86,135,50,137,132,85,142,18,97,143,100,5,107,95,82,103,98,1,87,76,73,48,63,30,34,7,84,8,89,96,35,124,146,26,75,65,55,58,141,83,56,90,25,20,51,109,43,67,38,23,32,131,134,138,46,54,92,33,126,93,52,105,111,133,77,122,14,80,21,78,15,16,59,79,121,88,94,10,113,3,62,149,125,22,104,4,150,115,44,71,45,128,68,119,91,106,13,74,123,136,112,64,145,72,147,49,144,129,31,27,117,140,60,66,17,148,11,61,36,69,127,130,39,57,41,101,116,12,24,118,53,40,139,120,42
